Version identifier: 12.10.0.0 | 2019-11-26 | 843d4de
CPXPARAM_WorkMem                                 28672
Tried aggregator 2 times.
Aggregator did 75 substitutions.
Reduced MIP has 319 rows, 360 columns, and 1480 nonzeros.
Reduced MIP has 360 binaries, 0 generals, 0 SOSs, and 0 indicators.
Presolve time = 0,00 sec. (1,44 ticks)
Found incumbent of value 300,000000 after 0,00 sec. (2,44 ticks)
Probing time = 0,00 sec. (0,72 ticks)
Tried aggregator 1 time.
Detecting symmetries...
MIP Presolve eliminated 68 rows and 0 columns.
MIP Presolve added 136 rows and 0 columns.
Reduced MIP has 387 rows, 360 columns, and 1548 nonzeros.
Reduced MIP has 360 binaries, 0 generals, 0 SOSs, and 0 indicators.
Presolve time = 0,00 sec. (1,77 ticks)
Probing time = 0,00 sec. (0,70 ticks)
Clique table members: 1075.
MIP emphasis: balance optimality and feasibility.
MIP search method: dynamic search.
Parallel mode: deterministic, using up to 16 threads.
Root relaxation solution time = 0,00 sec. (1,99 ticks)

        Nodes                                         Cuts/
   Node  Left     Objective  IInf  Best Integer    Best Bound    ItCnt     Gap

*     0+    0                          300,0000        0,0000           100,00%
*     0+    0                          186,0000        0,0000           100,00%
      0     0       75,0000   352      186,0000       75,0000      153   59,68%
      0     0       75,7706   352      186,0000     Cuts: 169      242   59,26%
      0     0       77,7991   352      186,0000     Cuts: 137      293   58,17%
      0     0       78,4629   352      186,0000      Cuts: 44      316   57,82%
      0     0       78,4886   352      186,0000      Cuts: 35      322   57,80%
      0     0       78,5278   352      186,0000      Fract: 2      331   57,78%
Detecting symmetries...
      0     0       78,5530   352      186,0000      Cuts: 84      335   57,77%
*     0+    0                          183,0000       78,5530            57,07%
*     0+    0                          170,0000       78,5530            53,79%
*     0+    0                          158,0000       78,5530            50,28%
Detecting symmetries...
      0     2       78,5530   359      158,0000       98,5000      335   37,66%
Elapsed time = 0,17 sec. (102,91 ticks, tree = 0,02 MB, solutions = 5)
   2382  1480      141,8768   130      158,0000      111,2232    83407   29,61%
   4432  2868      130,9982   266      158,0000      120,2763   179390   23,88%

Performing restart 1

Repeating presolve.
Tried aggregator 1 time.
Reduced MIP has 387 rows, 360 columns, and 1548 nonzeros.
Reduced MIP has 360 binaries, 0 generals, 0 SOSs, and 0 indicators.
Presolve time = 0,00 sec. (0,94 ticks)
Tried aggregator 1 time.
Reduced MIP has 387 rows, 360 columns, and 1548 nonzeros.
Reduced MIP has 360 binaries, 0 generals, 0 SOSs, and 0 indicators.
Presolve time = 0,00 sec. (1,20 ticks)
Represolve time = 0,01 sec. (7,91 ticks)
   4437     0       79,7093   359      158,0000       Cuts: 7   197387   23,22%
   4437     0       80,4180   359      158,0000       Cuts: 7   197435   23,22%
   4437     0       81,2102   359      158,0000       Cuts: 9   197493   23,22%
   4437     0       81,6649   359      158,0000       Cuts: 6   197523   23,22%
   4437     2       81,6649   359      158,0000      121,3145   197523   23,22%
   4448     8       94,0659   330      158,0000      121,3145   198786   23,22%
   5766   965      152,5636    61      158,0000      121,3145   255458   23,22%
   7707  1955      121,5414   268      158,0000      121,3145   302425   23,22%
   9947  4319      129,3015   224      158,0000      121,3145   382929   23,22%

Performing restart 2

Repeating presolve.
Tried aggregator 1 time.
Reduced MIP has 387 rows, 360 columns, and 1548 nonzeros.
Reduced MIP has 360 binaries, 0 generals, 0 SOSs, and 0 indicators.
Presolve time = 0,00 sec. (0,94 ticks)
Tried aggregator 1 time.
Reduced MIP has 387 rows, 360 columns, and 1548 nonzeros.
Reduced MIP has 360 binaries, 0 generals, 0 SOSs, and 0 indicators.
Presolve time = 0,00 sec. (1,20 ticks)
Represolve time = 0,02 sec. (15,39 ticks)
   9975     0       82,6831   357      158,0000       Cuts: 4   399957   23,22%
   9975     0       82,9384   357      158,0000      Fract: 3   400004   23,22%
   9975     0       83,3820   357      158,0000      Fract: 4   400072   23,22%
   9975     0       83,6890   357      158,0000      Fract: 7   400153   23,22%
*  9975+    0                          157,0000      121,3145            22,73%
   9975     0       83,8190   357      157,0000       Cuts: 5   400195   22,73%
   9975     0       84,1010   357      157,0000       Cuts: 6   400252   22,73%
   9975     2       84,1010   359      157,0000      121,3145   400252   22,73%
  12616  1827      137,5745   136      157,0000      121,3145   453669   22,73%
  23412  7951      154,1272   117      157,0000      135,1533   711656   13,92%
Elapsed time = 4,11 sec. (3565,68 ticks, tree = 52,04 MB, solutions = 6)
* 24716+ 8732                          155,0000      135,8901            12,33%
  33669  9122        cutoff            155,0000      143,7835   993748    7,24%

Clique cuts applied:  10
Cover cuts applied:  597
Flow cuts applied:  19
Mixed integer rounding cuts applied:  43
Zero-half cuts applied:  3
Lift and project cuts applied:  2
Gomory fractional cuts applied:  59

Root node processing (before b&c):
  Real time             =    0,16 sec. (102,57 ticks)
Parallel b&c, 16 threads:
  Real time             =    6,34 sec. (5101,58 ticks)
  Sync time (average)   =    1,70 sec.
  Wait time (average)   =    0,01 sec.
                          ------------
Total (root+branch&cut) =    6,50 sec. (5204,15 ticks)
